Gurobi 12.0.3:   lim:time = 14400
  mip:bestbound = 1
Set parameter LogToConsole to value 1
  tech:outlev = 1
Set parameter InfUnbdInfo to value 1
Gurobi Optimizer version 12.0.3 build v12.0.3rc0 (win64 - Windows 10.0 (19045.2))

CPU model: Intel(R) Core(TM) i7-10700 CPU @ 2.90GHz, instruction set [SSE2|AVX|AVX2]
Thread count: 8 physical cores, 16 logical processors, using up to 16 threads

Non-default parameters:
TimeLimit  14400
InfUnbdInfo  1

Optimize a model with 203 rows, 198 columns and 1039 nonzeros
Model fingerprint: 0x8ac42bfb
Model has 1 quadratic objective term
Model has 4 quadratic constraints
Variable types: 22 continuous, 176 integer (0 binary)
Coefficient statistics:
  Matrix range     [1e+00, 1e+05]
  QMatrix range    [1e+00, 1e+00]
  QLMatrix range   [1e+00, 2e+01]
  Objective range  [9e+00, 9e+01]
  QObjective range [1e+00, 1e+00]
  Bounds range     [1e+00, 9e+01]
  RHS range        [1e+00, 1e+05]
  QRHS range       [1e+02, 1e+02]
Presolve removed 18 rows and 33 columns
Presolve time: 0.01s
Presolved: 267 rows, 245 columns, 1371 nonzeros
Variable types: 12 continuous, 233 integer (203 binary)
Found heuristic solution: objective 221.5400000

Root relaxation: objective 1.125643e+02, 33 iterations, 0.00 seconds (0.00 work units)

    Nodes    |    Current Node    |     Objective Bounds      |     Work
 Expl Unexpl |  Obj  Depth IntInf | Incumbent    BestBd   Gap | It/Node Time

     0     0  112.56432    0   12  221.54000  112.56432  49.2%     -    0s
     0     0  127.96012    0   12  221.54000  127.96012  42.2%     -    0s
H    0     0                     194.1000000  127.96055  34.1%     -    0s
     0     0  128.12000    0    6  194.10000  128.12000  34.0%     -    0s
     0     0  128.12000    0    6  194.10000  128.12000  34.0%     -    0s
H    0     0                     175.2700000  128.12000  26.9%     -    0s
     0     0  128.12000    0    6  175.27000  128.12000  26.9%     -    0s
     0     0  128.12000    0    6  175.27000  128.12000  26.9%     -    0s
     0     0  128.12000    0   12  175.27000  128.12000  26.9%     -    0s
     0     0  128.12000    0   11  175.27000  128.12000  26.9%     -    0s
     0     0  128.12000    0    6  175.27000  128.12000  26.9%     -    0s
     0     0  128.12000    0    6  175.27000  128.12000  26.9%     -    0s
     0     0  128.12000    0    6  175.27000  128.12000  26.9%     -    0s
     0     2  128.12000    0    6  175.27000  128.12000  26.9%     -    0s

Cutting planes:
  Learned: 3
  Implied bound: 2
  Relax-and-lift: 2

Explored 78 nodes (590 simplex iterations) in 0.10 seconds (0.06 work units)
Thread count was 16 (of 16 available processors)

Solution count 3: 175.27 194.1 221.54 

Optimal solution found (tolerance 1.00e-04)
Best objective 1.752700000000e+02, best bound 1.752700000000e+02, gap 0.0000%

AMPL MP initial flat model has 198 variables (0 integer, 176 binary);
Objectives: 1 quadratic; 
Constraints:  203 linear; 4 quadratic;

AMPL MP final model has 198 variables (0 integer, 176 binary);
Objectives: 1 quadratic; 
Constraints:  203 linear; 4 quadratic;


-----RESULTS INFO-----
running_time:  0.125
TC.best_bound:  175.27
TC:  175.26999999999998
MIP Gap (%):  1.6215957910882644e-14
=== Vehicle Routes ===
Vehicle 1: 0 → 1
Vehicle 1: 1 → 12
Vehicle 1: 2 → 7
Vehicle 1: 7 → 15
Vehicle 1: 12 → 2
Vehicle 2: 0 → 15

=== Full Vehicle Routes ===
Vehicle 1: 0 → 1 → 12 → 2 → 7 → 0 (72<100)
Vehicle 2: 0 → 0 (0<100)
Arc used by MRT line: y variables:
MRT used: 7 → 8
Customer assigment to PL: u variables:
3 8
4 8
5 12
6 8
Node is served by regular vehicle: g variables:
1
2
7
12
Customer assigment to Home delivery: gm variables:
1
2
Node total demands: ntd variables:
1 16 1
2 12 1
5 0 0
6 0 0
13 0 0
14 0 0
7 20 1
8 0 0
9 0 0
10 0 0
11 0 0
12 24 1
Customer's demand delivered to PL: l variables:
3
4
5
6
Lockers load <= capacity:
0 <= 90
0 <= 96
0 <= 84
20 <= 91
0 <= 81
0 <= 78
0 <= 75
24 <= 89
